decision_x1=[0,4];
decision_x2=[0,4];
decision_x3=[0,4];
decision_x4=[0,4];
decision_x5=[0,4];
decision_x6=[0,4];
decision_x7=[0,4];
decision_x8=[0,4];
decision_x9=[0,4];
decision_x10=[0,4];
random_y1=[0,4];
random_y2=[0,4];
random_y3=[0,4];
random_y4=[0,4];
random_y5=[0,4];
random_y6=[0,4];
random_y7=[0,4];
random_y8=[0,4];
random_y9=[0,4];
random_y10=[0,4];
constraint_x2_x1=[
0,0,10|
0,1,4.6|
0,2,15|
0,3,28|
0,4,41|
1,0,69|
1,1,20|
1,2,71|
1,3,77|
1,4,40|
2,0,24|
2,1,69|
2,2,80|
2,3,46|
2,4,21|
3,0,97|
3,1,1e+02|
3,2,38|
3,3,89|
3,4,69|
4,0,15|
4,1,18|
4,2,83|
4,3,27|
4,4,58|
];
constraint_x3_x1=[
0,0,87|
0,1,81|
0,2,7.3|
0,3,42|
0,4,56|
1,0,54|
1,1,54|
1,2,62|
1,3,30|
1,4,14|
2,0,74|
2,1,78|
2,2,18|
2,3,46|
2,4,82|
3,0,9.6|
3,1,70|
3,2,90|
3,3,48|
3,4,33|
4,0,26|
4,1,32|
4,2,14|
4,3,62|
4,4,82|
];
constraint_x4_x2=[
0,0,83|
0,1,6.8|
0,2,4.7|
0,3,69|
0,4,2.6|
1,0,73|
1,1,40|
1,2,17|
1,3,47|
1,4,19|
2,0,23|
2,1,90|
2,2,92|
2,3,22|
2,4,13|
3,0,24|
3,1,40|
3,2,89|
3,3,8|
3,4,35|
4,0,86|
4,1,53|
4,2,93|
4,3,57|
4,4,57|
];
constraint_x4_x3=[
0,0,49|
0,1,79|
0,2,35|
0,3,37|
0,4,55|
1,0,7|
1,1,17|
1,2,16|
1,3,36|
1,4,47|
2,0,68|
2,1,70|
2,2,25|
2,3,70|
2,4,44|
3,0,14|
3,1,9.5|
3,2,15|
3,3,68|
3,4,4.4|
4,0,56|
4,1,13|
4,2,16|
4,3,62|
4,4,69|
];
constraint_x5_x2=[
0,0,25|
0,1,16|
0,2,30|
0,3,14|
0,4,77|
1,0,32|
1,1,94|
1,2,14|
1,3,62|
1,4,35|
2,0,58|
2,1,89|
2,2,51|
2,3,13|
2,4,12|
3,0,78|
3,1,36|
3,2,33|
3,3,36|
3,4,9.4|
4,0,8.8|
4,1,7.1|
4,2,48|
4,3,73|
4,4,52|
];
constraint_x5_x3=[
0,0,12|
0,1,68|
0,2,47|
0,3,33|
0,4,88|
1,0,89|
1,1,25|
1,2,74|
1,3,95|
1,4,24|
2,0,82|
2,1,29|
2,2,19|
2,3,57|
2,4,21|
3,0,72|
3,1,1e+02|
3,2,18|
3,3,25|
3,4,61|
4,0,75|
4,1,65|
4,2,71|
4,3,47|
4,4,37|
];
constraint_x5_x4=[
0,0,82|
0,1,93|
0,2,17|
0,3,4.5|
0,4,81|
1,0,73|
1,1,80|
1,2,72|
1,3,2|
1,4,92|
2,0,27|
2,1,26|
2,2,58|
2,3,98|
2,4,37|
3,0,57|
3,1,97|
3,2,83|
3,3,0.63|
3,4,6.9|
4,0,99|
4,1,66|
4,2,21|
4,3,85|
4,4,26|
];
constraint_x6_x2=[
0,0,64|
0,1,67|
0,2,68|
0,3,65|
0,4,6.3|
1,0,43|
1,1,1.9|
1,2,74|
1,3,63|
1,4,21|
2,0,30|
2,1,1.4|
2,2,2.9|
2,3,80|
2,4,85|
3,0,97|
3,1,35|
3,2,99|
3,3,1.1|
3,4,48|
4,0,18|
4,1,63|
4,2,51|
4,3,47|
4,4,35|
];
constraint_x6_x4=[
0,0,33|
0,1,9.8|
0,2,84|
0,3,37|
0,4,51|
1,0,15|
1,1,88|
1,2,6.6|
1,3,85|
1,4,26|
2,0,69|
2,1,71|
2,2,97|
2,3,78|
2,4,79|
3,0,47|
3,1,67|
3,2,83|
3,3,89|
3,4,37|
4,0,14|
4,1,69|
4,2,66|
4,3,89|
4,4,84|
];
constraint_x7_x1=[
0,0,97|
0,1,71|
0,2,12|
0,3,50|
0,4,18|
1,0,65|
1,1,99|
1,2,99|
1,3,57|
1,4,40|
2,0,52|
2,1,4.2|
2,2,31|
2,3,42|
2,4,44|
3,0,36|
3,1,28|
3,2,33|
3,3,2.2|
3,4,7.4|
4,0,60|
4,1,9.5|
4,2,33|
4,3,67|
4,4,3.7|
];
constraint_x7_x3=[
0,0,29|
0,1,14|
0,2,12|
0,3,29|
0,4,71|
1,0,92|
1,1,97|
1,2,78|
1,3,43|
1,4,65|
2,0,45|
2,1,22|
2,2,1.3|
2,3,52|
2,4,45|
3,0,79|
3,1,8.9|
3,2,11|
3,3,5.4|
3,4,5.9|
4,0,66|
4,1,44|
4,2,53|
4,3,38|
4,4,98|
];
constraint_x7_x5=[
0,0,26|
0,1,57|
0,2,31|
0,3,40|
0,4,9.4|
1,0,86|
1,1,39|
1,2,59|
1,3,54|
1,4,53|
2,0,46|
2,1,63|
2,2,58|
2,3,87|
2,4,58|
3,0,33|
3,1,76|
3,2,76|
3,3,25|
3,4,61|
4,0,65|
4,1,44|
4,2,80|
4,3,59|
4,4,88|
];
constraint_x7_x6=[
0,0,52|
0,1,88|
0,2,2.5|
0,3,20|
0,4,4.8|
1,0,81|
1,1,39|
1,2,78|
1,3,72|
1,4,16|
2,0,16|
2,1,39|
2,2,10|
2,3,68|
2,4,98|
3,0,55|
3,1,33|
3,2,18|
3,3,64|
3,4,19|
4,0,25|
4,1,89|
4,2,22|
4,3,92|
4,4,58|
];
constraint_x8_x4=[
0,0,45|
0,1,93|
0,2,41|
0,3,51|
0,4,79|
1,0,43|
1,1,94|
1,2,97|
1,3,62|
1,4,15|
2,0,50|
2,1,70|
2,2,52|
2,3,6.3|
2,4,32|
3,0,70|
3,1,21|
3,2,61|
3,3,24|
3,4,52|
4,0,27|
4,1,11|
4,2,17|
4,3,64|
4,4,8|
];
constraint_x8_x5=[
0,0,77|
0,1,7.8|
0,2,48|
0,3,94|
0,4,12|
1,0,94|
1,1,42|
1,2,52|
1,3,42|
1,4,66|
2,0,54|
2,1,24|
2,2,53|
2,3,95|
2,4,48|
3,0,63|
3,1,37|
3,2,50|
3,3,38|
3,4,79|
4,0,84|
4,1,57|
4,2,31|
4,3,29|
4,4,31|
];
constraint_x8_x6=[
0,0,4.2|
0,1,87|
0,2,64|
0,3,48|
0,4,71|
1,0,64|
1,1,47|
1,2,67|
1,3,40|
1,4,45|
2,0,43|
2,1,4.5|
2,2,30|
2,3,90|
2,4,31|
3,0,99|
3,1,87|
3,2,85|
3,3,56|
3,4,38|
4,0,9|
4,1,41|
4,2,67|
4,3,65|
4,4,34|
];
constraint_x9_x3=[
0,0,23|
0,1,28|
0,2,59|
0,3,17|
0,4,45|
1,0,16|
1,1,61|
1,2,2.1|
1,3,46|
1,4,51|
2,0,73|
2,1,26|
2,2,92|
2,3,15|
2,4,87|
3,0,40|
3,1,51|
3,2,33|
3,3,92|
3,4,35|
4,0,58|
4,1,91|
4,2,68|
4,3,1.4|
4,4,53|
];
constraint_x9_x6=[
0,0,6.6|
0,1,68|
0,2,4.5|
0,3,54|
0,4,82|
1,0,93|
1,1,85|
1,2,77|
1,3,38|
1,4,6|
2,0,67|
2,1,24|
2,2,48|
2,3,45|
2,4,67|
3,0,66|
3,1,45|
3,2,44|
3,3,37|
3,4,42|
4,0,69|
4,1,46|
4,2,25|
4,3,76|
4,4,74|
];
constraint_x10_x1=[
0,0,16|
0,1,50|
0,2,67|
0,3,18|
0,4,89|
1,0,66|
1,1,58|
1,2,31|
1,3,75|
1,4,94|
2,0,63|
2,1,85|
2,2,1.4|
2,3,65|
2,4,92|
3,0,64|
3,1,2.3|
3,2,0.57|
3,3,12|
3,4,9.1|
4,0,25|
4,1,50|
4,2,80|
4,3,0.5|
4,4,16|
];
constraint_x10_x2=[
0,0,11|
0,1,97|
0,2,82|
0,3,27|
0,4,95|
1,0,48|
1,1,78|
1,2,41|
1,3,28|
1,4,1e+02|
2,0,49|
2,1,9.9|
2,2,78|
2,3,61|
2,4,21|
3,0,98|
3,1,25|
3,2,21|
3,3,30|
3,4,40|
4,0,16|
4,1,70|
4,2,42|
4,3,83|
4,4,25|
];
constraint_x10_x4=[
0,0,16|
0,1,97|
0,2,96|
0,3,64|
0,4,95|
1,0,18|
1,1,23|
1,2,98|
1,3,99|
1,4,12|
2,0,0.64|
2,1,50|
2,2,47|
2,3,90|
2,4,88|
3,0,49|
3,1,14|
3,2,13|
3,3,87|
3,4,23|
4,0,64|
4,1,96|
4,2,66|
4,3,9.5|
4,4,98|
];
constraint_x10_x7=[
0,0,63|
0,1,21|
0,2,17|
0,3,89|
0,4,80|
1,0,90|
1,1,33|
1,2,0.46|
1,3,37|
1,4,22|
2,0,2.7|
2,1,96|
2,2,58|
2,3,58|
2,4,41|
3,0,52|
3,1,25|
3,2,36|
3,3,57|
3,4,97|
4,0,97|
4,1,93|
4,2,34|
4,3,63|
4,4,90|
];
constraint_x10_x8=[
0,0,77|
0,1,68|
0,2,46|
0,3,76|
0,4,56|
1,0,14|
1,1,65|
1,2,13|
1,3,59|
1,4,81|
2,0,65|
2,1,57|
2,2,31|
2,3,32|
2,4,67|
3,0,11|
3,1,51|
3,2,22|
3,3,40|
3,4,65|
4,0,32|
4,1,73|
4,2,10|
4,3,78|
4,4,56|
];
constraint_x1_y1=[
0,0,19|
0,1,63|
0,2,28|
0,3,43|
0,4,54|
1,0,49|
1,1,36|
1,2,77|
1,3,69|
1,4,96|
2,0,42|
2,1,60|
2,2,63|
2,3,98|
2,4,66|
3,0,5.9|
3,1,45|
3,2,74|
3,3,97|
3,4,15|
4,0,47|
4,1,81|
4,2,44|
4,3,80|
4,4,80|
];
constraint_x2_y2=[
0,0,99|
0,1,52|
0,2,58|
0,3,74|
0,4,83|
1,0,94|
1,1,89|
1,2,35|
1,3,69|
1,4,5.8|
2,0,7|
2,1,5.1|
2,2,95|
2,3,79|
2,4,52|
3,0,53|
3,1,86|
3,2,73|
3,3,80|
3,4,41|
4,0,24|
4,1,56|
4,2,45|
4,3,38|
4,4,97|
];
constraint_x3_y3=[
0,0,7.9|
0,1,75|
0,2,1.3|
0,3,96|
0,4,62|
1,0,55|
1,1,65|
1,2,8|
1,3,21|
1,4,64|
2,0,75|
2,1,21|
2,2,91|
2,3,54|
2,4,45|
3,0,90|
3,1,64|
3,2,0.22|
3,3,86|
3,4,81|
4,0,20|
4,1,16|
4,2,18|
4,3,39|
4,4,34|
];
constraint_x4_y4=[
0,0,13|
0,1,29|
0,2,48|
0,3,15|
0,4,26|
1,0,77|
1,1,85|
1,2,16|
1,3,64|
1,4,97|
2,0,50|
2,1,68|
2,2,17|
2,3,66|
2,4,96|
3,0,62|
3,1,77|
3,2,91|
3,3,48|
3,4,45|
4,0,40|
4,1,88|
4,2,42|
4,3,40|
4,4,23|
];
constraint_x5_y5=[
0,0,33|
0,1,13|
0,2,49|
0,3,16|
0,4,11|
1,0,49|
1,1,48|
1,2,72|
1,3,83|
1,4,2.5|
2,0,59|
2,1,71|
2,2,58|
2,3,11|
2,4,12|
3,0,33|
3,1,86|
3,2,56|
3,3,45|
3,4,83|
4,0,83|
4,1,35|
4,2,99|
4,3,1|
4,4,63|
];
constraint_x6_y6=[
0,0,19|
0,1,44|
0,2,5.9|
0,3,84|
0,4,92|
1,0,44|
1,1,82|
1,2,17|
1,3,16|
1,4,12|
2,0,19|
2,1,67|
2,2,23|
2,3,76|
2,4,43|
3,0,99|
3,1,84|
3,2,96|
3,3,17|
3,4,13|
4,0,39|
4,1,48|
4,2,15|
4,3,8.8|
4,4,0.029|
];
constraint_x7_y7=[
0,0,67|
0,1,1|
0,2,39|
0,3,22|
0,4,9.7|
1,0,65|
1,1,1.5|
1,2,49|
1,3,69|
1,4,48|
2,0,87|
2,1,8.4|
2,2,75|
2,3,55|
2,4,20|
3,0,57|
3,1,43|
3,2,42|
3,3,82|
3,4,60|
4,0,74|
4,1,65|
4,2,41|
4,3,17|
4,4,27|
];
constraint_x8_y8=[
0,0,68|
0,1,69|
0,2,3.5|
0,3,81|
0,4,73|
1,0,35|
1,1,67|
1,2,1.7|
1,3,95|
1,4,39|
2,0,27|
2,1,94|
2,2,5.6|
2,3,17|
2,4,54|
3,0,79|
3,1,56|
3,2,23|
3,3,51|
3,4,69|
4,0,47|
4,1,34|
4,2,62|
4,3,95|
4,4,40|
];
constraint_x9_y9=[
0,0,14|
0,1,69|
0,2,89|
0,3,12|
0,4,37|
1,0,51|
1,1,49|
1,2,39|
1,3,63|
1,4,84|
2,0,52|
2,1,74|
2,2,36|
2,3,46|
2,4,93|
3,0,93|
3,1,98|
3,2,68|
3,3,12|
3,4,89|
4,0,43|
4,1,82|
4,2,55|
4,3,73|
4,4,50|
];
constraint_x10_y10=[
0,0,87|
0,1,8.2|
0,2,77|
0,3,16|
0,4,99|
1,0,53|
1,1,75|
1,2,25|
1,3,53|
1,4,13|
2,0,90|
2,1,52|
2,2,59|
2,3,40|
2,4,7.2|
3,0,2.1|
3,1,0.7|
3,2,95|
3,3,29|
3,4,88|
4,0,62|
4,1,10|
4,2,27|
4,3,94|
4,4,23|
];
initial_distribution_y1=[0.25,0.13,0.14,0.33,0.16];
initial_distribution_y2=[0.31,0.16,0.17,0.25,0.12];
initial_distribution_y3=[0.17,0.16,0.16,0.25,0.26];
initial_distribution_y4=[0.22,0.38,0.24,0.16,0.0066];
initial_distribution_y5=[0.17,0.27,0.35,0.096,0.12];
initial_distribution_y6=[0.34,0.47,0.051,0.093,0.048];
initial_distribution_y7=[0.2,0.26,0.16,0.28,0.093];
initial_distribution_y8=[0.1,0.23,0.31,0.26,0.095];
initial_distribution_y9=[0.1,0.29,0.34,0.1,0.17];
initial_distribution_y10=[0.25,0.42,0.13,0.13,0.067];
transition_y1=[
0.31,0.22,0.14,0.23,0.088|
0.077,0.052,0.31,0.35,0.2|
0.11,0.048,0.29,0.43,0.12|
0.081,0.021,0.38,0.18,0.33|
0.26,0.16,0.32,0.16,0.1|
];
transition_y2=[
0.16,0.14,0.28,0.16,0.26|
0.38,0.34,0.13,0.14,0.0066|
0.035,0.45,0.16,0.18,0.17|
0.026,0.41,0.074,0.25,0.24|
0.094,0.28,0.3,0.14,0.18|
];
transition_y3=[
0.2,0.12,0.34,0.042,0.3|
0.19,0.21,0.18,0.049,0.37|
0.03,0.28,0.23,0.28,0.18|
0.33,0.14,0.17,0.35,0.0064|
0.26,0.27,0.043,0.19,0.24|
];
transition_y4=[
0.086,0.3,0.25,0.35,0.0093|
0.22,0.1,0.3,0.14,0.24|
0.17,0.13,0.34,0.18,0.19|
0.16,0.18,0.19,0.23,0.24|
0.25,0.049,0.0076,0.43,0.26|
];
transition_y5=[
0.21,0.16,0.21,0.21,0.2|
0.29,0.21,0.35,0.04,0.11|
0.21,0.15,0.22,0.24,0.18|
0.093,0.38,0.37,0.088,0.06|
0.023,0.3,0.16,0.22,0.29|
];
transition_y6=[
0.22,0.19,0.14,0.28,0.17|
0.023,0.26,0.27,0.18,0.27|
0.17,0.079,0.073,0.54,0.13|
0.29,0.19,0.15,0.17,0.2|
0.22,0.18,0.091,0.1,0.41|
];
transition_y7=[
0.19,0.16,0.17,0.15,0.33|
0.2,0.18,0.2,0.34,0.078|
0.068,0.23,0.35,0.14,0.21|
0.23,0.18,0.31,0.034,0.25|
0.083,0.24,0.32,0.059,0.3|
];
transition_y8=[
0.1,0.31,0.2,0.067,0.32|
0.16,0.33,0.2,0.037,0.28|
0.43,0.16,0.25,0.06,0.091|
0.31,0.14,0.2,0.039,0.31|
0.034,0.19,0.33,0.015,0.44|
];
transition_y9=[
0.19,0.31,0.23,0.11,0.16|
0.12,0.28,0.034,0.29,0.27|
0.12,0.23,0.18,0.24,0.22|
0.27,0.18,0.16,0.25,0.14|
0.31,0.24,0.26,0.15,0.036|
];
transition_y10=[
0.28,0.2,0.26,0.12,0.15|
0.36,0.068,0.21,0.22,0.14|
0.26,0.17,0.25,0.19,0.14|
0.047,0.26,0.23,0.23,0.23|
0.27,0.15,0.25,0.3,0.03|
];
